NAME          
ROWS
 N  OBJ
 L  c1
 L  c2
 L  c3
 L  c4
 L  c5
COLUMNS
    MARKER    'MARKER'                 'INTORG'
    x[1]      c1        820
    x[1]      c2        667
    x[1]      c3        690
    x[1]      c4        277
    x[1]      c5        325
    x[1]      OBJ       -219
    x[2]      c1        259
    x[2]      c2        489
    x[2]      c3        885
    x[2]      c4        627
    x[2]      c5        825
    x[2]      OBJ       -882
    x[3]      c1        54
    x[3]      c2        158
    x[3]      c3        332
    x[3]      c4        380
    x[3]      c5        731
    x[3]      OBJ       -285
    x[4]      c1        957
    x[4]      c2        692
    x[4]      c3        637
    x[4]      c4        261
    x[4]      c5        731
    x[4]      OBJ       -562
    x[5]      c1        336
    x[5]      c2        267
    x[5]      c3        58
    x[5]      c4        29
    x[5]      c5        34
    x[5]      OBJ       -113
    x[6]      c1        340
    x[6]      c2        245
    x[6]      c3        437
    x[6]      c4        966
    x[6]      c5        5
    x[6]      OBJ       -715
    x[7]      c1        406
    x[7]      c2        957
    x[7]      c3        465
    x[7]      c4        402
    x[7]      c5        457
    x[7]      OBJ       -143
    x[8]      c1        225
    x[8]      c2        682
    x[8]      c3        86
    x[8]      c4        449
    x[8]      c5        401
    x[8]      OBJ       -532
    x[9]      c1        628
    x[9]      c2        632
    x[9]      c3        717
    x[9]      c4        164
    x[9]      c5        755
    x[9]      OBJ       -360
    x[10]     c1        768
    x[10]     c2        213
    x[10]     c3        15
    x[10]     c4        662
    x[10]     c5        856
    x[10]     OBJ       -603
RHS
    rhs       c1        2396
    rhs       c2        2501
    rhs       c3        2161
    rhs       c4        2108
    rhs       c5        2560
RANGES
BOUNDS
 BV bounds    x[1]
 BV bounds    x[2]
 BV bounds    x[3]
 BV bounds    x[4]
 BV bounds    x[5]
 BV bounds    x[6]
 BV bounds    x[7]
 BV bounds    x[8]
 BV bounds    x[9]
 BV bounds    x[10]
ENDATA
